1	2	1	1	3	5	0	0	0	0	0	0
800	1	0	0	0	0	0	0	0	0	0	0
100	1	0	77.75	3.47	1	0	0	0	0	0	0
100	1	0	77.75	3.47	1	0	0	0	0	0	0
50	150	0	0	0	0	9999	0	0	99999	0	0
50	75	0	0	0	0	9999	0	0	99999	0	0
50	75	0	0	0	0	9999	0	0	0	0	0
31	84	0	0	0	0	9999	0	0	0	0	0
39	26	0	0	0	0	9999	0	0	0	0	0
20	55	10	4	6	456	508	90	0	0	0	0
25	85	20	6	14	277	329	90	0	0	0	0
55	85	20	13	7	845	899	90	0	0	0	0
68	60	30	26	4	838	910	90	0	0	0	0
48	30	10	6	4	364	426	90	0	0	0	0

